proyfinal/src/viki/013/andrea/andrea-localstore/experimentInOfficeAgust.take6/worker_3/fe871c88-7196-4080-9b11-78b1d1f4de8a.als.cnf.out
Reading from standard input... Use '--help' for help.
============================[ Problem Statistics ]=============================
|                                                                             |
|  Number of variables:         87638                                         |
|  Number of clauses:          161767                                         |
|  Parse time:                   0.04 s                                       |
|                                                                             |
============================[ Search Statistics ]==============================
| Conflicts |          ORIGINAL         |          LEARNT          | Progress |
|           |    Vars  Clauses Literals |    Limit  Clauses Lit/Cl |          |
===============================================================================
|       100 |   63730   110065   275223 |    40357      100      7 | 27.280 % |
|       250 |   63684   109900   274787 |    44392      233     24 | 27.333 % |
|       475 |   63666   109856   274697 |    48832      456     45 | 27.353 % |
|       812 |   63666   109782   274526 |    53715      793     76 | 27.353 % |
|      1318 |   63626   109624   274139 |    59086     1291     88 | 27.399 % |
|      2077 |   63571   109405   273599 |    64995     2029     99 | 27.462 % |
|      3216 |   63543   109289   273334 |    71495     3167     82 | 27.494 % |
|      4924 |   63474   109015   272669 |    78644     4524     93 | 27.573 % |
|      7486 |   47814    62905   158889 |    86509     6725     81 | 45.441 % |
===============================================================================
restarts              : 41
conflicts             : 9628           (6457 /sec)
decisions             : 34204          (0.00 % random) (22938 /sec)
propagations          : 16380874       (10985315 /sec)
conflict literals     : 677012         (43.90 % deleted)
Memory used           : 31.21 MB
CPU time              : 1.49116 s

UNSATISFIABLE
